\ File written by Highs .lp filereader
minimize
 obj: -1 x1 -10 x2 -5 x3 -75 x4 -75 x5 -5 x6 -30 x7 -60 x8 -15 x9 -150 x10 -100 x11 -200 x12 -15 x13 -150 x14 -30 x15 -60 x16 -1 x17 -10 x18 -6 x19 -20 x20 -6 x21 +0 x22 +0 x23 +0 x24 +0 x25 +0 x26 +0 x27 +0 x28 +0 x29 +0 x30 +0 x31 +0 x32 +0 x33 +0 x34 +0 x35 +0 x36 
st
 con0: +5 x0 +20 x1 +30 x6 = +5
 con1: +30 x1 +20 x2 +60 x7 = +10
 con2: +30 x2 +150 x3 +120 x7 +30 x18 = +30
 con3: +300 x3 +300 x4 +400 x11 +100 x19 = +100
 con4: +150 x4 +30 x5 +120 x15 +30 x20 = +30
 con5: +5 x5 +6 x20 = +1
 con6: +6 x0 +30 x6 +30 x8 = +6
 con7: +60 x1 +120 x6 +180 x7 +300 x9 = +60
 con8: +150 x6 +75 x8 +300 x9 +300 x10 = +75
 con9: +300 x3 +300 x7 +450 x9 +600 x11 = +150
 con10: +60 x8 +100 x10 +60 x12 = +20
 con11: +600 x9 +400 x10 +600 x11 +600 x13 = +200
 con12: +300 x10 +75 x12 +300 x13 +150 x14 = +75
 con13: +300 x4 +600 x11 +450 x13 +300 x15 = +150
 con14: +30 x12 +30 x14 +6 x16 = +6
 con15: +300 x13 +120 x14 +180 x15 +60 x17 = +60
 con16: +30 x14 +5 x16 +20 x17 = +5
 con17: +20 x5 +60 x15 +30 x17 = +10
 con18: +5 x2 +6 x18 = +1
 con19: +75 x3 +30 x18 +60 x19 = +15
 con20: +75 x4 +60 x19 +30 x20 = +15
 con21: +1 x1 -1 x6 -1 x21 = +0
 con22: +1 x1 -1 x8 -1 x22 = +0
 con23: +1 x2 -1 x7 -1 x23 = +0
 con24: +1 x2 -1 x9 -1 x24 = +0
 con25: +1 x2 -1 x10 -1 x25 = +0
 con26: +1 x2 -1 x12 -1 x26 = +0
 con27: +1 x3 -1 x11 -1 x27 = +0
 con28: +1 x3 -1 x13 -1 x28 = +0
 con29: +1 x3 -1 x14 -1 x29 = +0
 con30: +1 x3 -1 x16 -1 x30 = +0
 con31: +1 x3 -1 x18 -1 x31 = +0
 con32: +1 x4 -1 x15 -1 x32 = +0
 con33: +1 x4 -1 x17 -1 x33 = +0
 con34: +1 x4 -1 x19 -1 x34 = +0
 con35: +1 x5 -1 x20 -1 x35 = +0
bounds
 +0 <= x0 <= +1
 +0 <= x1 <= +1
 +0 <= x2 <= +1
 +0 <= x3 <= +1
 +0 <= x4 <= +1
 +0 <= x5 <= +1
 +0 <= x6 <= +1
 +0 <= x7 <= +1
 +0 <= x8 <= +1
 +0 <= x9 <= +1
 +0 <= x10 <= +1
 +0 <= x11 <= +1
 +0 <= x12 <= +1
 +0 <= x13 <= +1
 +0 <= x14 <= +1
 +0 <= x15 <= +1
 +0 <= x16 <= +1
 +0 <= x17 <= +1
 +0 <= x18 <= +1
 +0 <= x19 <= +1
 +0 <= x20 <= +1
 +0 <= x21 <= +0
 +0 <= x22 <= +0
 +0 <= x23 <= +0
 +0 <= x24 <= +0
 +0 <= x25 <= +0
 +0 <= x26 <= +0
 +0 <= x27 <= +0
 +0 <= x28 <= +0
 +0 <= x29 <= +0
 +0 <= x30 <= +0
 +0 <= x31 <= +0
 +0 <= x32 <= +0
 +0 <= x33 <= +0
 +0 <= x34 <= +0
 +0 <= x35 <= +0
binary
general
semi
end
